src/asp/benchmarks/large5.lp
citta(narni).
citta(assisi).
citta(gualdo_tardino).
citta(perugia).
citta(magione).
citta(terni).
citta(orvieto).
citta(san_giustino).
citta(citta_di_castello).
citta(umbertide).
citta(foligno).
citta(amelia).
citta(spoleto).
citta(corciano).
citta(gubbio).
citta(todi).
citta(marsciano).
citta(bastia_umbra).
citta(castiglione_del_lago).

richiesta(narni, strade, 103).
richiesta(narni, fiumi, 66).
richiesta(narni, scuole, 359).
richiesta(narni, parchi, 32).
richiesta(narni, energia, 285).

richiesta(assisi, strade, 83).
richiesta(assisi, fiumi, 91).
richiesta(assisi, scuole, 2).
richiesta(assisi, parchi, 3).
richiesta(assisi, energia, 59).

richiesta(gualdo_tardino, strade, 11).
richiesta(gualdo_tardino, fiumi, 9).
richiesta(gualdo_tardino, scuole, 214).
richiesta(gualdo_tardino, parchi, 234).
richiesta(gualdo_tardino, energia, 75).

richiesta(perugia, strade, 119).
richiesta(perugia, fiumi, 174).
richiesta(perugia, scuole, 129).
richiesta(perugia, parchi, 36).
richiesta(perugia, energia, 51).

richiesta(magione, strade, 122).
richiesta(magione, fiumi, 172).
richiesta(magione, scuole, 30).
richiesta(magione, parchi, 168).
richiesta(magione, energia, 19).

richiesta(terni, strade, 63).
richiesta(terni, fiumi, 261).
richiesta(terni, scuole, 11).
richiesta(terni, parchi, 102).
richiesta(terni, energia, 30).

richiesta(orvieto, strade, 215).
richiesta(orvieto, fiumi, 116).
richiesta(orvieto, scuole, 40).
richiesta(orvieto, parchi, 45).
richiesta(orvieto, energia, 17).

richiesta(san_giustino, strade, 204).
richiesta(san_giustino, fiumi, 256).
richiesta(san_giustino, scuole, 37).
richiesta(san_giustino, parchi, 21).
richiesta(san_giustino, energia, 37).

richiesta(citta_di_castello, strade, 185).
richiesta(citta_di_castello, fiumi, 84).
richiesta(citta_di_castello, scuole, 133).
richiesta(citta_di_castello, parchi, 13).
richiesta(citta_di_castello, energia, 102).

richiesta(umbertide, strade, 72).
richiesta(umbertide, fiumi, 112).
richiesta(umbertide, scuole, 97).
richiesta(umbertide, parchi, 94).
richiesta(umbertide, energia, 80).

richiesta(foligno, strade, 160).
richiesta(foligno, fiumi, 95).
richiesta(foligno, scuole, 102).
richiesta(foligno, parchi, 18).
richiesta(foligno, energia, 194).

richiesta(amelia, strade, 77).
richiesta(amelia, fiumi, 150).
richiesta(amelia, scuole, 22).
richiesta(amelia, parchi, 36).
richiesta(amelia, energia, 55).

richiesta(spoleto, strade, 111).
richiesta(spoleto, fiumi, 27).
richiesta(spoleto, scuole, 27).
richiesta(spoleto, parchi, 11).
richiesta(spoleto, energia, 168).

richiesta(corciano, strade, 39).
richiesta(corciano, fiumi, 66).
richiesta(corciano, scuole, 111).
richiesta(corciano, parchi, 73).
richiesta(corciano, energia, 111).

richiesta(gubbio, strade, 156).
richiesta(gubbio, fiumi, 56).
richiesta(gubbio, scuole, 27).
richiesta(gubbio, parchi, 128).
richiesta(gubbio, energia, 33).

richiesta(todi, strade, 51).
richiesta(todi, fiumi, 10).
richiesta(todi, scuole, 313).
richiesta(todi, parchi, 234).
richiesta(todi, energia, 24).

richiesta(marsciano, strade, 15).
richiesta(marsciano, fiumi, 8).
richiesta(marsciano, scuole, 75).
richiesta(marsciano, parchi, 53).
richiesta(marsciano, energia, 355).

richiesta(bastia_umbra, strade, 34).
richiesta(bastia_umbra, fiumi, 85).
richiesta(bastia_umbra, scuole, 36).
richiesta(bastia_umbra, parchi, 696).
richiesta(bastia_umbra, energia, 80).

richiesta(castiglione_del_lago, strade, 94).
richiesta(castiglione_del_lago, fiumi, 117).
richiesta(castiglione_del_lago, scuole, 241).
richiesta(castiglione_del_lago, parchi, 120).
richiesta(castiglione_del_lago, energia, 182).

