src/minizinc/benchmarks/large5.dzn
COMUNI = {
	bastia_umbra,
	spoleto,
	castiglione_del_lago,
	orvieto,
	citta_di_castello,
	amelia,
	narni,
	gubbio,
	foligno,
	assisi,
	terni,
	todi,
	san_giustino,
	umbertide,
	magione,
	gualdo_tardino,
	corciano,
	perugia,
	marsciano,
};

NUMERO_COMUNI = 19;

ABITANTI_PER_COMUNE = [21, 36, 15, 19, 38, 11, 17, 30, 55, 27, 106, 15, 11, 16, 14, 14, 21, 161, 18];

STRADE_TRA_COMUNI = [|
	false, false, false, false, false, false, false, false, false, true, false, false, false, false, false, false, false, true, false |
	false, false, false, false, false, false, false, false, false, false, true, false, false, false, false, false, false, false, false |
	false, false, false, false, false, false, false, false, false, false, false, false, false, false, true, false, false, false, false |
	false, false, false, false, false, false, false, false, false, false, false, true, false, false, false, false, false, false, false |
	false, false, false, false, false, false, false, false, false, false, false, false, true, true, false, false, false, false, false |
	false, false, false, false, false, false, true, false, false, false, false, true, false, false, false, false, false, false, false |
	false, false, false, false, false, true, false, false, false, false, true, false, false, false, false, false, false, false, false |
	false, false, false, false, false, false, false, false, false, false, false, false, false, true, false, true, false, false, false |
	false, false, false, false, false, false, false, false, false, true, false, false, false, false, false, false, false, false, false |
	true, false, false, false, false, false, false, false, true, false, false, false, false, false, false, false, false, false, false |
	false, true, false, false, false, false, true, false, false, false, false, false, false, false, false, false, false, false, false |
	false, false, false, true, false, true, false, false, false, false, false, false, false, false, false, false, false, false, true |
	false, false, false, false, true, false, false, false, false, false, false, false, false, false, false, false, false, false, false |
	false, false, false, false, true, false, false, true, false, false, false, false, false, false, false, false, false, true, false |
	false, false, true, false, false, false, false, false, false, false, false, false, false, false, false, false, true, false, false |
	false, false, false, false, false, false, false, true, false, false, false, false, false, false, false, false, false, false, false |
	false, false, false, false, false, false, false, false, false, false, false, false, false, false, true, false, false, true, false |
	true, false, false, false, false, false, false, false, false, false, false, false, false, true, false, false, true, false, true |
	false, false, false, false, false, false, false, false, false, false, false, true, false, false, false, false, false, true, false |
|];

RICHIESTE = [|
	58, 4, 273, 68, 45 |
	96, 24, 96, 146, 8 |
	268, 82, 17, 14, 82 |
	39, 232, 152, 124, 96 |
	85, 264, 56, 20, 273 |
	204, 30, 117, 230, 162 |
	137, 8, 13, 54, 137 |
	228, 100, 161, 56, 136 |
	92, 167, 225, 58, 18 |
	185, 170, 41, 40, 14 |
	213, 18, 108, 100, 175 |
	161, 67, 299, 21, 77 |
	49, 53, 43, 310, 48 |
	83, 42, 0, 176, 68 |
	113, 10, 165, 203, 2 |
	43, 76, 15, 213, 99 |
	18, 11, 4, 156, 64 |
	53, 219, 124, 96, 7 |
	9, 11, 233, 18, 476 |
|];
